c slitherlink puzzle, 5x5 easy:
c
c      	o     o     o     o     o     o  	   	o  -  o  -  o     o     o  -  o     		  	o  -  o  -  o     o     o  -  o
c                2     1     2	           	   	|     	 2  |  1     2	|     |				|     	 2  |  1     2	|     |
c     	o     o     o     o     o     o            	o  -  o     o     o  -  o     o 			o  -  o     o     o  -  o     o 
c	   3			           	   	   3  |	    |	  | 	      |				   3  |	    |	  | 	      |
c      	o     o     o     o     o     o   SAT-solver   	o  -  o     o  -  o     o     o     Correct Solution	o  -  o     o  -  o     o     o
c	   3	 0     2     1	              =>  	|  3  	 0     2     1        |            =>		|  3  	 0     2     1        |
c      	o     o     o     o     o     o wrong solution  o  -  o     o  -  o  -  o     o 			o  -  o     o  -  o  -  o  -  o
c	   3			   2        	   	   3  |	    |      	|  2  |				   3  |	    |      	   2  
c      	o     o     o     o     o     o            	o  -  o     o  -  o  -  o     o 			o  -  o     o  -  o  -  o  -  o 
c		 1     2	           	   	|     	 1     2              |				|     	 1     2              |
c      	o     o     o     o     o     o            	o  -  o  -  o  -  o  -  o  -  o 			o  -  o  -  o  -  o  -  o  -  o 
c
c Atom pxy is represented by (x+1) + y*6
p cnf 25 61
-14 0
-26 0
 -40 0
-52 0
 -66 0
-78 0
 -92 0
-104 0
 -118 0
-130 0
 -144 0
-156 0
-2 0
-158 0
 -4 0
-160 0
 -6 0
-162 0
 -8 0
-164 0
 -10 0
-166 0
 -12 0
-168 0
-14 -28 -16 -2 0
-14 28 16 2 0
14 -28 16 2 0
14 28 -16 2 0
14 28 16 -2 0
14 -28 -16 -2 0
-14 28 -16 -2 0
-14 -28 16 -2 0
-14 -28 -16 2 0
   -28 -16 -2 0
-14    -16 -2 0
-14 -28    -2 0
-14 -28 -16   0
 -40 -54 -42 -28 0
-40 54 42 28 0
40 -54 42 28 0
40 54 -42 28 0
40 54 42 -28 0
40 -54 -42 -28 0
-40 54 -42 -28 0
-40 -54 42 -28 0
-40 -54 -42 28 0
   -54 -42 -28 0
-40    -42 -28 0
-40 -54    -28 0
-40 -54 -42   0
 -66 -80 -68 -54 0
-66 80 68 54 0
66 -80 68 54 0
66 80 -68 54 0
66 80 68 -54 0
66 -80 -68 -54 0
-66 80 -68 -54 0
-66 -80 68 -54 0
-66 -80 -68 54 0
   -80 -68 -54 0
-66    -68 -54 0
-66 -80    -54 0
-66 -80 -68   0
 -92 -106 -94 -80 0
-92 106 94 80 0
92 -106 94 80 0
92 106 -94 80 0
92 106 94 -80 0
92 -106 -94 -80 0
-92 106 -94 -80 0
-92 -106 94 -80 0
-92 -106 -94 80 0
   -106 -94 -80 0
-92    -94 -80 0
-92 -106    -80 0
-92 -106 -94   0
 -118 -132 -120 -106 0
-118 132 120 106 0
118 -132 120 106 0
118 132 -120 106 0
118 132 120 -106 0
118 -132 -120 -106 0
-118 132 -120 -106 0
-118 -132 120 -106 0
-118 -132 -120 106 0
   -132 -120 -106 0
-118    -120 -106 0
-118 -132    -106 0
-118 -132 -120   0
 -144 -158 -146 -132 0
-144 158 146 132 0
144 -158 146 132 0
144 158 -146 132 0
144 158 146 -132 0
144 -158 -146 -132 0
-144 158 -146 -132 0
-144 -158 146 -132 0
-144 -158 -146 132 0
   -158 -146 -132 0
-144    -146 -132 0
-144 -158    -132 0
-144 -158 -146   0
 -16 -30 -18 -4 0
-16 30 18 4 0
16 -30 18 4 0
16 30 -18 4 0
16 30 18 -4 0
16 -30 -18 -4 0
-16 30 -18 -4 0
-16 -30 18 -4 0
-16 -30 -18 4 0
   -30 -18 -4 0
-16    -18 -4 0
-16 -30    -4 0
-16 -30 -18   0
 -42 -56 -44 -30 0
-42 56 44 30 0
42 -56 44 30 0
42 56 -44 30 0
42 56 44 -30 0
42 -56 -44 -30 0
-42 56 -44 -30 0
-42 -56 44 -30 0
-42 -56 -44 30 0
   -56 -44 -30 0
-42    -44 -30 0
-42 -56    -30 0
-42 -56 -44   0
 -68 -82 -70 -56 0
-68 82 70 56 0
68 -82 70 56 0
68 82 -70 56 0
68 82 70 -56 0
68 -82 -70 -56 0
-68 82 -70 -56 0
-68 -82 70 -56 0
-68 -82 -70 56 0
   -82 -70 -56 0
-68    -70 -56 0
-68 -82    -56 0
-68 -82 -70   0
 -94 -108 -96 -82 0
-94 108 96 82 0
94 -108 96 82 0
94 108 -96 82 0
94 108 96 -82 0
94 -108 -96 -82 0
-94 108 -96 -82 0
-94 -108 96 -82 0
-94 -108 -96 82 0
   -108 -96 -82 0
-94    -96 -82 0
-94 -108    -82 0
-94 -108 -96   0
 -120 -134 -122 -108 0
-120 134 122 108 0
120 -134 122 108 0
120 134 -122 108 0
120 134 122 -108 0
120 -134 -122 -108 0
-120 134 -122 -108 0
-120 -134 122 -108 0
-120 -134 -122 108 0
   -134 -122 -108 0
-120    -122 -108 0
-120 -134    -108 0
-120 -134 -122   0
 -146 -160 -148 -134 0
-146 160 148 134 0
146 -160 148 134 0
146 160 -148 134 0
146 160 148 -134 0
146 -160 -148 -134 0
-146 160 -148 -134 0
-146 -160 148 -134 0
-146 -160 -148 134 0
   -160 -148 -134 0
-146    -148 -134 0
-146 -160    -134 0
-146 -160 -148   0
 -18 -32 -20 -6 0
-18 32 20 6 0
18 -32 20 6 0
18 32 -20 6 0
18 32 20 -6 0
18 -32 -20 -6 0
-18 32 -20 -6 0
-18 -32 20 -6 0
-18 -32 -20 6 0
   -32 -20 -6 0
-18    -20 -6 0
-18 -32    -6 0
-18 -32 -20   0
 -44 -58 -46 -32 0
-44 58 46 32 0
44 -58 46 32 0
44 58 -46 32 0
44 58 46 -32 0
44 -58 -46 -32 0
-44 58 -46 -32 0
-44 -58 46 -32 0
-44 -58 -46 32 0
   -58 -46 -32 0
-44    -46 -32 0
-44 -58    -32 0
-44 -58 -46   0
 -70 -84 -72 -58 0
-70 84 72 58 0
70 -84 72 58 0
70 84 -72 58 0
70 84 72 -58 0
70 -84 -72 -58 0
-70 84 -72 -58 0
-70 -84 72 -58 0
-70 -84 -72 58 0
   -84 -72 -58 0
-70    -72 -58 0
-70 -84    -58 0
-70 -84 -72   0
 -96 -110 -98 -84 0
-96 110 98 84 0
96 -110 98 84 0
96 110 -98 84 0
96 110 98 -84 0
96 -110 -98 -84 0
-96 110 -98 -84 0
-96 -110 98 -84 0
-96 -110 -98 84 0
   -110 -98 -84 0
-96    -98 -84 0
-96 -110    -84 0
-96 -110 -98   0
 -122 -136 -124 -110 0
-122 136 124 110 0
122 -136 124 110 0
122 136 -124 110 0
122 136 124 -110 0
122 -136 -124 -110 0
-122 136 -124 -110 0
-122 -136 124 -110 0
-122 -136 -124 110 0
   -136 -124 -110 0
-122    -124 -110 0
-122 -136    -110 0
-122 -136 -124   0
 -148 -162 -150 -136 0
-148 162 150 136 0
148 -162 150 136 0
148 162 -150 136 0
148 162 150 -136 0
148 -162 -150 -136 0
-148 162 -150 -136 0
-148 -162 150 -136 0
-148 -162 -150 136 0
   -162 -150 -136 0
-148    -150 -136 0
-148 -162    -136 0
-148 -162 -150   0
 -20 -34 -22 -8 0
-20 34 22 8 0
20 -34 22 8 0
20 34 -22 8 0
20 34 22 -8 0
20 -34 -22 -8 0
-20 34 -22 -8 0
-20 -34 22 -8 0
-20 -34 -22 8 0
   -34 -22 -8 0
-20    -22 -8 0
-20 -34    -8 0
-20 -34 -22   0
 -46 -60 -48 -34 0
-46 60 48 34 0
46 -60 48 34 0
46 60 -48 34 0
46 60 48 -34 0
46 -60 -48 -34 0
-46 60 -48 -34 0
-46 -60 48 -34 0
-46 -60 -48 34 0
   -60 -48 -34 0
-46    -48 -34 0
-46 -60    -34 0
-46 -60 -48   0
 -72 -86 -74 -60 0
-72 86 74 60 0
72 -86 74 60 0
72 86 -74 60 0
72 86 74 -60 0
72 -86 -74 -60 0
-72 86 -74 -60 0
-72 -86 74 -60 0
-72 -86 -74 60 0
   -86 -74 -60 0
-72    -74 -60 0
-72 -86    -60 0
-72 -86 -74   0
 -98 -112 -100 -86 0
-98 112 100 86 0
98 -112 100 86 0
98 112 -100 86 0
98 112 100 -86 0
98 -112 -100 -86 0
-98 112 -100 -86 0
-98 -112 100 -86 0
-98 -112 -100 86 0
   -112 -100 -86 0
-98    -100 -86 0
-98 -112    -86 0
-98 -112 -100   0
 -124 -138 -126 -112 0
-124 138 126 112 0
124 -138 126 112 0
124 138 -126 112 0
124 138 126 -112 0
124 -138 -126 -112 0
-124 138 -126 -112 0
-124 -138 126 -112 0
-124 -138 -126 112 0
   -138 -126 -112 0
-124    -126 -112 0
-124 -138    -112 0
-124 -138 -126   0
 -150 -164 -152 -138 0
-150 164 152 138 0
150 -164 152 138 0
150 164 -152 138 0
150 164 152 -138 0
150 -164 -152 -138 0
-150 164 -152 -138 0
-150 -164 152 -138 0
-150 -164 -152 138 0
   -164 -152 -138 0
-150    -152 -138 0
-150 -164    -138 0
-150 -164 -152   0
 -22 -36 -24 -10 0
-22 36 24 10 0
22 -36 24 10 0
22 36 -24 10 0
22 36 24 -10 0
22 -36 -24 -10 0
-22 36 -24 -10 0
-22 -36 24 -10 0
-22 -36 -24 10 0
   -36 -24 -10 0
-22    -24 -10 0
-22 -36    -10 0
-22 -36 -24   0
 -48 -62 -50 -36 0
-48 62 50 36 0
48 -62 50 36 0
48 62 -50 36 0
48 62 50 -36 0
48 -62 -50 -36 0
-48 62 -50 -36 0
-48 -62 50 -36 0
-48 -62 -50 36 0
   -62 -50 -36 0
-48    -50 -36 0
-48 -62    -36 0
-48 -62 -50   0
 -74 -88 -76 -62 0
-74 88 76 62 0
74 -88 76 62 0
74 88 -76 62 0
74 88 76 -62 0
74 -88 -76 -62 0
-74 88 -76 -62 0
-74 -88 76 -62 0
-74 -88 -76 62 0
   -88 -76 -62 0
-74    -76 -62 0
-74 -88    -62 0
-74 -88 -76   0
 -100 -114 -102 -88 0
-100 114 102 88 0
100 -114 102 88 0
100 114 -102 88 0
100 114 102 -88 0
100 -114 -102 -88 0
-100 114 -102 -88 0
-100 -114 102 -88 0
-100 -114 -102 88 0
   -114 -102 -88 0
-100    -102 -88 0
-100 -114    -88 0
-100 -114 -102   0
 -126 -140 -128 -114 0
-126 140 128 114 0
126 -140 128 114 0
126 140 -128 114 0
126 140 128 -114 0
126 -140 -128 -114 0
-126 140 -128 -114 0
-126 -140 128 -114 0
-126 -140 -128 114 0
   -140 -128 -114 0
-126    -128 -114 0
-126 -140    -114 0
-126 -140 -128   0
 -152 -166 -154 -140 0
-152 166 154 140 0
152 -166 154 140 0
152 166 -154 140 0
152 166 154 -140 0
152 -166 -154 -140 0
-152 166 -154 -140 0
-152 -166 154 -140 0
-152 -166 -154 140 0
   -166 -154 -140 0
-152    -154 -140 0
-152 -166    -140 0
-152 -166 -154   0
 -24 -38 -26 -12 0
-24 38 26 12 0
24 -38 26 12 0
24 38 -26 12 0
24 38 26 -12 0
24 -38 -26 -12 0
-24 38 -26 -12 0
-24 -38 26 -12 0
-24 -38 -26 12 0
   -38 -26 -12 0
-24    -26 -12 0
-24 -38    -12 0
-24 -38 -26   0
 -50 -64 -52 -38 0
-50 64 52 38 0
50 -64 52 38 0
50 64 -52 38 0
50 64 52 -38 0
50 -64 -52 -38 0
-50 64 -52 -38 0
-50 -64 52 -38 0
-50 -64 -52 38 0
   -64 -52 -38 0
-50    -52 -38 0
-50 -64    -38 0
-50 -64 -52   0
 -76 -90 -78 -64 0
-76 90 78 64 0
76 -90 78 64 0
76 90 -78 64 0
76 90 78 -64 0
76 -90 -78 -64 0
-76 90 -78 -64 0
-76 -90 78 -64 0
-76 -90 -78 64 0
   -90 -78 -64 0
-76    -78 -64 0
-76 -90    -64 0
-76 -90 -78   0
 -102 -116 -104 -90 0
-102 116 104 90 0
102 -116 104 90 0
102 116 -104 90 0
102 116 104 -90 0
102 -116 -104 -90 0
-102 116 -104 -90 0
-102 -116 104 -90 0
-102 -116 -104 90 0
   -116 -104 -90 0
-102    -104 -90 0
-102 -116    -90 0
-102 -116 -104   0
 -128 -142 -130 -116 0
-128 142 130 116 0
128 -142 130 116 0
128 142 -130 116 0
128 142 130 -116 0
128 -142 -130 -116 0
-128 142 -130 -116 0
-128 -142 130 -116 0
-128 -142 -130 116 0
   -142 -130 -116 0
-128    -130 -116 0
-128 -142    -116 0
-128 -142 -130   0
 -154 -168 -156 -142 0
-154 168 156 142 0
154 -168 156 142 0
154 168 -156 142 0
154 168 156 -142 0
154 -168 -156 -142 0
-154 168 -156 -142 0
-154 -168 156 -142 0
-154 -168 -156 142 0
   -168 -156 -142 0
-154    -156 -142 0
-154 -168    -142 0
-154 -168 -156   0
-14 -28 -16 -2 0
 -27 -41 -29 -15 0
 -40 -54 -42 -28 0
 -53 -67 -55 -41 0
 -66 -80 -68 -54 0
 -79 -93 -81 -67 0
 -15 -29 -17 -3 0
 -28 -42 -30 -16 0
 -41 -55 -43 -29 0
 -54 -68 -56 -42 0
 -67 -81 -69 -55 0
 -80 -94 -82 -68 0
 -16 -30 -18 -4 0
 -29 -43 -31 -17 0
 -42 -56 -44 -30 0
 -55 -69 -57 -43 0
 -68 -82 -70 -56 0
 -81 -95 -83 -69 0
 -17 -31 -19 -5 0
 -30 -44 -32 -18 0
 -43 -57 -45 -31 0
 -56 -70 -58 -44 0
 -69 -83 -71 -57 0
 -82 -96 -84 -70 0
 -18 -32 -20 -6 0
 -31 -45 -33 -19 0
 -44 -58 -46 -32 0
 -57 -71 -59 -45 0
 -70 -84 -72 -58 0
 -83 -97 -85 -71 0
 -19 -33 -21 -7 0
 -32 -46 -34 -20 0
 -45 -59 -47 -33 0
 -58 -72 -60 -46 0
 -71 -85 -73 -59 0
 -84 -98 -86 -72 0
30 44 32 18 0
-30 -44 -32 -18 0
30 -44 -32 -18 0
-30 44 -32 -18 0
-30 -44 32 -18 0
-30 -44 -32 18 0
-44 -32 -18 0
-30 -32 -18 0
-30 -44 -18 0
-30 -44 -32 0
30 44 -32 -18 0
30 -44 32 -18 0
30 -44 -32 18 0
-30 44 32 -18 0
-30 44 -32 18 0
-30 -44 32 18 0
-32 -18 0
-44 -18 0
-44 -32 0
-30 -18 0
-30 -32 0
-30 -44 0
30 -32 -18 0
30 -44 -18 0
30 -44 -32 0
44 -32 -18 0
-44 32 -18 0
-44 -32 18 0
-30 44 -18 0
-30 44 -32 0
-30 32 -18 0
-30 -32 18 0
-30 -44 32 0
-30 -44 18 0
 32 46 34 20 0
-32 46 34 20 0
32 -46 34 20 0
32 46 -34 20 0
32 46 34 -20 0
32 -46 -34 -20 0
-32 46 -34 -20 0
-32 -46 34 -20 0
-32 -46 -34 20 0
   46 34 20 0
32    34 20 0
32 46    20 0
32 46 34   0
 -54 -68 -56 -42 0
54 68 56 42 0
-54 68 56 42 0
54 -68 56 42 0
54 68 -56 42 0
54 68 56 -42 0
   68 56 42 0
54    56 42 0
54 68    42 0
54 68 56   0
-54 -68 56 42 0
-54 68 -56 42 0
-54 68 56 -42 0
54 -68 -56 42 0
54 -68 56 -42 0
54 68 -56 -42 0
56 42 0
68 42 0
68 56 0
54 42 0
54 56 0
54 68 0
-54 56 42 0
-54 68 42 0
-54 68 56 0
 -68 56 42 0
 68 -56 42 0
 68 56 -42 0
54 -68 42 0
54 -68 56 0
54 -56 42 0
54 56 -42 0
54 68 -56 0
54 68 -42 0
 62 76 64 50 0
-62 76 64 50 0
62 -76 64 50 0
62 76 -64 50 0
62 76 64 -50 0
62 -76 -64 -50 0
-62 76 -64 -50 0
-62 -76 64 -50 0
-62 -76 -64 50 0
   76 64 50 0
62    64 50 0
62 76    50 0
62 76 64   0
 -80 -94 -82 -68 0
80 94 82 68 0
-80 94 82 68 0
80 -94 82 68 0
80 94 -82 68 0
80 94 82 -68 0
   94 82 68 0
80    82 68 0
80 94    68 0
80 94 82   0
-80 -94 82 68 0
-80 94 -82 68 0
-80 94 82 -68 0
80 -94 -82 68 0
80 -94 82 -68 0
80 94 -82 -68 0
82 68 0
94 68 0
94 82 0
80 68 0
80 82 0
80 94 0
-80 82 68 0
-80 94 68 0
-80 94 82 0
 -94 82 68 0
 94 -82 68 0
 94 82 -68 0
80 -94 68 0
80 -94 82 0
80 -82 68 0
80 82 -68 0
80 94 -82 0
80 94 -68 0
 -82 0
-96 0
-84 0
-70 0
 84 98 86 72 0
-84 98 86 72 0
84 -98 86 72 0
84 98 -86 72 0
84 98 86 -72 0
84 -98 -86 -72 0
-84 98 -86 -72 0
-84 -98 86 -72 0
-84 -98 -86 72 0
   98 86 72 0
84    86 72 0
84 98    72 0
84 98 86   0
 86 100 88 74 0
-86 -100 -88 -74 0
86 -100 -88 -74 0
-86 100 -88 -74 0
-86 -100 88 -74 0
-86 -100 -88 74 0
-100 -88 -74 0
-86 -88 -74 0
-86 -100 -74 0
-86 -100 -88 0
86 100 -88 -74 0
86 -100 88 -74 0
86 -100 -88 74 0
-86 100 88 -74 0
-86 100 -88 74 0
-86 -100 88 74 0
-88 -74 0
-100 -74 0
-100 -88 0
-86 -74 0
-86 -88 0
-86 -100 0
86 -88 -74 0
86 -100 -74 0
86 -100 -88 0
100 -88 -74 0
-100 88 -74 0
-100 -88 74 0
-86 100 -74 0
-86 100 -88 0
-86 88 -74 0
-86 -88 74 0
-86 -100 88 0
-86 -100 74 0
 -106 -120 -108 -94 0
106 120 108 94 0
-106 120 108 94 0
106 -120 108 94 0
106 120 -108 94 0
106 120 108 -94 0
   120 108 94 0
106    108 94 0
106 120    94 0
106 120 108   0
-106 -120 108 94 0
-106 120 -108 94 0
-106 120 108 -94 0
106 -120 -108 94 0
106 -120 108 -94 0
106 120 -108 -94 0
108 94 0
120 94 0
120 108 0
106 94 0
106 108 0
106 120 0
-106 108 94 0
-106 120 94 0
-106 120 108 0
 -120 108 94 0
 120 -108 94 0
 120 108 -94 0
106 -120 94 0
106 -120 108 0
106 -108 94 0
106 108 -94 0
106 120 -108 0
106 120 -94 0
 134 148 136 122 0
-134 148 136 122 0
134 -148 136 122 0
134 148 -136 122 0
134 148 136 -122 0
134 -148 -136 -122 0
-134 148 -136 -122 0
-134 -148 136 -122 0
-134 -148 -136 122 0
   148 136 122 0
134    136 122 0
134 148    122 0
134 148 136   0
 136 150 138 124 0
-136 -150 -138 -124 0
136 -150 -138 -124 0
-136 150 -138 -124 0
-136 -150 138 -124 0
-136 -150 -138 124 0
-150 -138 -124 0
-136 -138 -124 0
-136 -150 -124 0
-136 -150 -138 0
136 150 -138 -124 0
136 -150 138 -124 0
136 -150 -138 124 0
-136 150 138 -124 0
-136 150 -138 124 0
-136 -150 138 124 0
-138 -124 0
-150 -124 0
-150 -138 0
-136 -124 0
-136 -138 0
-136 -150 0
136 -138 -124 0
136 -150 -124 0
136 -150 -138 0
150 -138 -124 0
-150 138 -124 0
-150 -138 124 0
-136 150 -124 0
-136 150 -138 0
-136 138 -124 0
-136 -138 124 0
-136 -150 138 0
-136 -150 124 0
 138 152 140 126 0
-138 152 140 126 0
138 -152 140 126 0
138 152 -140 126 0
138 152 140 -126 0
138 -152 -140 -126 0
-138 152 -140 -126 0
-138 -152 140 -126 0
-138 -152 -140 126 0
   152 140 126 0
138    140 126 0
138 152    126 0
138 152 140   0
